NAME : Random_TSP_Instance
TYPE : TSP
DIMENSION : 8
EDGE_WEIGHT_TYPE : EUC_2D
NODE_COORD_SECTION
1 53726.958800 69353.247750
2 42462.548183 41954.997795
3 55791.991477 14656.702048
4 31374.675509 2469.430147
5 54630.987250 78446.724202
6 68022.823434 65665.007129
7 2695.298542 49163.075943
8 68942.779823 19744.404414
EOF
